c Random generated cnf formula, satisfiable: false
p cnf 10 50
-7 5 4 0
-9 6 -7 0
1 -3 9 0
-3 7 -9 0
-8 4 -9 0
-8 -3 -7 0
-8 3 4 0
-8 -1 -2 0
8 7 -2 0
-2 -5 -9 0
-9 -3 7 0
-8 -6 7 0
5 3 -2 0
8 -4 3 0
6 7 -4 0
1 -5 9 0
9 5 -3 0
-10 3 -5 0
-3 -4 10 0
-9 -2 7 0
4 8 9 0
1 4 -8 0
-8 -10 -5 0
-2 -4 8 0
-8 -3 10 0
-9 5 -3 0
9 -6 1 0
-6 2 10 0
8 -7 3 0
8 -3 -5 0
3 -1 -10 0
-4 10 9 0
-9 -5 -2 0
-8 -6 -4 0
-6 -2 5 0
2 -7 -10 0
-2 8 5 0
6 3 7 0
8 9 3 0
7 -6 1 0
2 -7 -3 0
5 -8 -6 0
-7 -10 5 0
-1 -4 -3 0
2 9 -3 0
5 -2 -9 0
-3 5 -2 0
9 -10 -2 0
8 3 7 0
10 2 -1 0
